100 1464
0 3
0 6
0 7
0 9
0 10
0 14
0 15
0 22
0 31
0 34
0 37
0 42
0 47
0 54
0 56
0 60
0 63
0 64
0 65
0 72
0 75
0 77
0 84
0 91
0 92
0 94
0 96
1 11
1 13
1 14
1 16
1 17
1 25
1 29
1 31
1 32
1 33
1 36
1 38
1 46
1 53
1 55
1 60
1 69
1 72
1 74
1 75
1 76
1 83
1 86
1 87
1 88
1 92
1 95
1 98
2 3
2 8
2 11
2 13
2 17
2 19
2 22
2 24
2 32
2 36
2 40
2 44
2 48
2 49
2 50
2 53
2 56
2 65
2 72
2 80
2 81
2 87
2 93
2 95
3 5
3 6
3 18
3 19
3 20
3 21
3 36
3 39
3 42
3 43
3 47
3 52
3 54
3 55
3 56
3 59
3 61
3 62
3 65
3 67
3 69
3 73
3 74
3 84
3 86
3 87
3 90
3 93
3 96
3 97
4 7
4 11
4 16
4 20
4 24
4 28
4 29
4 35
4 37
4 41
4 44
4 49
4 51
4 54
4 63
4 76
4 77
4 78
4 80
4 83
4 91
4 95
4 98
4 99
5 8
5 9
5 10
5 12
5 16
5 17
5 19
5 23
5 24
5 25
5 33
5 37
5 40
5 41
5 44
5 45
5 46
5 55
5 59
5 60
5 64
5 66
5 73
5 77
5 80
5 83
5 85
5 87
5 90
5 92
5 93
5 95
5 97
5 98
5 99
6 7
6 11
6 12
6 15
6 17
6 19
6 21
6 24
6 33
6 36
6 37
6 43
6 52
6 56
6 60
6 63
6 70
6 71
6 72
6 74
6 75
6 76
6 77
6 79
6 80
6 82
6 89
6 94
6 95
6 99
7 16
7 18
7 20
7 22
7 24
7 31
7 33
7 36
7 39
7 44
7 47
7 52
7 53
7 55
7 58
7 61
7 62
7 64
7 65
7 66
7 68
7 69
7 76
7 77
7 80
7 84
7 85
7 88
7 90
7 96
8 11
8 14
8 18
8 19
8 22
8 23
8 25
8 30
8 34
8 43
8 50
8 55
8 57
8 58
8 63
8 64
8 65
8 66
8 71
8 78
8 79
8 80
8 85
8 86
8 91
8 94
8 96
9 13
9 14
9 16
9 21
9 31
9 33
9 37
9 38
9 41
9 44
9 47
9 54
9 57
9 61
9 62
9 65
9 66
9 69
9 74
9 77
9 82
9 90
9 92
9 94
9 98
10 12
10 16
10 18
10 21
10 23
10 29
10 33
10 35
10 36
10 43
10 53
10 57
10 58
10 63
10 64
10 65
10 73
10 76
10 77
10 79
10 84
10 89
10 92
10 97
11 12
11 30
11 31
11 33
11 36
11 37
11 43
11 45
11 46
11 51
11 55
11 58
11 59
11 61
11 62
11 63
11 67
11 70
11 75
11 81
11 83
11 86
11 87
11 92
11 94
12 13
12 16
12 18
12 20
12 21
12 23
12 27
12 32
12 34
12 42
12 45
12 51
12 52
12 55
12 61
12 63
12 65
12 75
12 77
12 80
12 83
12 84
12 87
12 93
12 95
12 97
13 15
13 17
13 18
13 28
13 29
13 34
13 39
13 43
13 44
13 50
13 51
13 57
13 61
13 62
13 63
13 65
13 67
13 68
13 69
13 70
13 72
13 74
13 79
13 80
13 98
14 17
14 18
14 31
14 38
14 42
14 43
14 44
14 46
14 50
14 53
14 58
14 60
14 65
14 68
14 69
14 70
14 72
14 73
14 74
14 78
14 80
14 82
14 83
14 86
14 89
14 94
14 96
14 98
15 18
15 30
15 35
15 36
15 40
15 42
15 44
15 47
15 50
15 53
15 57
15 65
15 68
15 70
15 71
15 72
15 77
15 88
15 89
15 94
15 97
16 30
16 38
16 42
16 46
16 47
16 51
16 52
16 54
16 56
16 58
16 60
16 71
16 76
16 78
16 83
16 89
16 92
16 94
16 97
17 19
17 21
17 31
17 39
17 41
17 43
17 46
17 54
17 56
17 58
17 67
17 68
17 75
17 79
17 80
17 84
17 90
17 96
17 99
18 20
18 22
18 24
18 25
18 30
18 33
18 41
18 45
18 46
18 48
18 52
18 62
18 65
18 66
18 67
18 71
18 72
18 75
18 80
18 87
18 89
18 90
18 91
18 92
18 96
18 97
18 99
19 20
19 29
19 30
19 31
19 41
19 42
19 52
19 55
19 60
19 68
19 69
19 73
19 82
19 86
19 90
19 92
19 98
20 23
20 24
20 28
20 31
20 36
20 43
20 44
20 45
20 51
20 56
20 62
20 69
20 71
20 74
20 78
20 80
20 82
20 83
20 84
20 90
20 96
20 97
20 99
21 24
21 27
21 29
21 30
21 32
21 41
21 47
21 48
21 49
21 52
21 59
21 60
21 63
21 64
21 65
21 75
21 77
21 79
21 82
21 84
21 85
21 90
21 95
21 96
21 97
21 98
21 99
22 25
22 26
22 28
22 31
22 32
22 33
22 34
22 36
22 40
22 44
22 48
22 57
22 60
22 63
22 65
22 66
22 70
22 73
22 75
22 76
22 77
22 84
22 89
22 93
22 95
23 26
23 27
23 30
23 32
23 40
23 44
23 48
23 52
23 54
23 56
23 57
23 60
23 72
23 77
23 78
23 81
23 83
23 84
23 89
23 92
23 93
23 94
23 96
23 99
24 30
24 35
24 40
24 41
24 42
24 46
24 52
24 55
24 57
24 59
24 60
24 62
24 66
24 73
24 77
24 78
24 85
24 91
24 92
24 95
25 27
25 29
25 32
25 34
25 39
25 40
25 41
25 43
25 44
25 45
25 46
25 48
25 52
25 57
25 60
25 63
25 64
25 69
25 71
25 76
25 79
25 81
25 88
25 94
25 96
25 97
25 98
26 29
26 30
26 35
26 36
26 39
26 40
26 41
26 45
26 48
26 54
26 55
26 60
26 64
26 65
26 70
26 72
26 75
26 78
26 79
26 81
26 84
26 85
26 86
26 87
26 92
26 93
26 94
26 95
26 98
27 34
27 42
27 49
27 58
27 62
27 68
27 72
27 75
27 76
27 81
27 83
27 86
27 89
27 92
28 32
28 34
28 35
28 37
28 46
28 51
28 52
28 57
28 60
28 63
28 66
28 72
28 73
28 78
28 81
28 83
28 87
28 88
28 91
28 92
28 95
28 96
28 97
29 32
29 34
29 38
29 41
29 45
29 47
29 50
29 52
29 53
29 57
29 59
29 61
29 64
29 72
29 74
29 86
29 89
29 90
29 93
30 31
30 32
30 38
30 39
30 40
30 42
30 46
30 48
30 53
30 54
30 55
30 56
30 61
30 62
30 63
30 68
30 85
30 90
30 98
31 32
31 35
31 37
31 38
31 40
31 42
31 43
31 48
31 49
31 50
31 51
31 52
31 57
31 68
31 71
31 72
31 77
31 81
31 84
31 90
31 95
31 96
32 37
32 38
32 42
32 43
32 44
32 45
32 46
32 48
32 51
32 54
32 55
32 60
32 63
32 68
32 70
32 72
32 75
32 78
32 82
32 84
32 85
32 86
32 87
32 91
32 94
32 98
33 34
33 39
33 45
33 46
33 47
33 48
33 55
33 57
33 58
33 60
33 61
33 66
33 69
33 75
33 77
33 82
33 86
33 91
33 93
33 94
33 97
34 36
34 37
34 45
34 54
34 55
34 57
34 63
34 65
34 68
34 70
34 73
34 78
34 79
34 80
34 83
34 90
34 94
34 97
35 36
35 38
35 42
35 45
35 49
35 57
35 62
35 68
35 69
35 72
35 73
35 75
35 79
35 80
35 84
35 86
36 40
36 41
36 42
36 44
36 45
36 50
36 52
36 53
36 56
36 65
36 75
36 89
36 90
36 94
37 40
37 41
37 42
37 49
37 51
37 58
37 61
37 62
37 64
37 66
37 69
37 73
37 75
37 85
37 92
37 93
38 42
38 47
38 50
38 56
38 58
38 60
38 64
38 66
38 67
38 70
38 73
38 74
38 76
38 80
38 81
38 83
38 90
38 92
38 97
39 40
39 41
39 42
39 44
39 50
39 52
39 57
39 61
39 63
39 64
39 68
39 72
39 80
39 87
39 89
39 92
39 95
40 49
40 53
40 57
40 58
40 65
40 66
40 69
40 70
40 71
40 78
40 85
40 87
40 89
40 90
40 92
40 97
40 99
41 44
41 54
41 55
41 57
41 59
41 60
41 62
41 65
41 66
41 68
41 71
41 74
41 75
41 76
41 78
41 82
41 85
41 88
41 90
41 92
41 94
41 97
41 98
42 44
42 47
42 49
42 54
42 57
42 59
42 60
42 61
42 62
42 64
42 65
42 68
42 75
42 76
42 85
42 88
42 90
42 96
43 46
43 52
43 53
43 54
43 56
43 57
43 60
43 64
43 71
43 72
43 76
43 79
43 83
43 89
43 99
44 51
44 54
44 57
44 60
44 61
44 65
44 68
44 70
44 76
44 77
44 88
44 90
44 92
44 97
45 51
45 53
45 54
45 55
45 56
45 57
45 62
45 64
45 65
45 69
45 83
45 87
45 88
45 89
45 92
45 93
45 94
45 95
45 98
46 49
46 64
46 66
46 70
46 74
46 80
46 89
46 91
46 92
46 99
47 50
47 56
47 57
47 62
47 65
47 71
47 75
47 77
47 78
47 79
47 80
47 81
47 82
47 83
47 84
47 85
47 87
47 95
47 97
48 49
48 50
48 53
48 56
48 76
48 79
48 81
48 86
48 91
48 92
48 94
48 95
48 96
48 97
49 55
49 56
49 58
49 62
49 69
49 73
49 76
49 81
49 82
49 85
49 87
49 88
49 90
49 92
49 93
49 95
49 97
50 51
50 54
50 61
50 65
50 71
50 72
50 75
50 76
50 81
50 83
50 84
50 88
50 90
50 91
50 92
51 52
51 53
51 60
51 63
51 64
51 65
51 76
51 78
51 79
51 83
51 87
51 88
51 89
51 93
52 61
52 62
52 70
52 72
52 75
52 79
52 80
52 81
52 87
52 88
52 93
52 96
52 98
52 99
53 55
53 58
53 60
53 67
53 82
53 92
53 93
53 94
53 98
54 55
54 56
54 60
54 62
54 64
54 65
54 69
54 71
54 76
54 77
54 80
54 83
54 86
54 89
54 93
54 95
54 97
55 56
55 60
55 61
55 62
55 63
55 64
55 70
55 74
55 76
55 82
55 84
55 85
55 86
55 92
55 93
55 98
56 59
56 62
56 64
56 65
56 67
56 68
56 73
56 76
56 79
56 81
56 86
56 90
56 91
56 96
56 98
56 99
57 59
57 60
57 65
57 67
57 70
57 71
57 79
57 80
57 82
57 85
57 90
57 91
57 93
57 97
58 59
58 60
58 65
58 70
58 80
58 85
58 89
58 91
58 94
58 96
58 97
59 60
59 66
59 70
59 74
59 76
59 79
59 86
59 88
59 89
59 90
59 91
59 96
59 99
60 63
60 65
60 70
60 71
60 73
60 78
60 80
60 82
60 87
60 91
60 92
60 93
60 98
61 67
61 72
61 73
61 78
61 81
61 85
61 87
61 88
61 89
61 98
62 66
62 67
62 70
62 73
62 77
62 78
62 79
62 80
62 86
62 88
62 89
62 90
62 91
62 94
62 98
63 66
63 71
63 72
63 77
63 80
63 83
63 86
63 88
63 90
63 93
63 94
63 95
63 99
64 77
64 86
64 88
64 92
64 95
65 69
65 70
65 72
65 83
65 85
65 87
65 90
65 95
66 73
66 85
66 86
66 87
66 97
66 99
67 70
67 72
67 74
67 84
67 88
67 90
67 94
67 97
68 69
68 76
68 78
68 81
68 88
68 89
68 90
68 95
68 99
69 75
69 79
69 82
69 90
69 93
69 94
69 95
69 96
69 98
70 72
70 73
70 80
70 89
70 91
70 95
70 96
70 99
71 72
71 73
71 74
71 75
71 77
71 82
71 83
71 84
71 90
71 99
72 75
72 82
72 83
72 89
72 90
72 93
73 74
73 75
73 76
73 77
73 80
73 81
73 84
73 85
73 87
73 91
73 94
73 96
73 97
74 78
74 81
74 82
74 88
74 89
74 97
75 80
75 90
75 93
75 95
76 78
76 80
76 82
76 83
76 85
76 89
76 92
76 93
76 95
76 99
77 81
77 82
77 89
77 96
77 98
78 81
78 82
78 83
78 90
78 91
78 93
78 95
78 97
78 98
79 86
79 87
79 93
79 96
79 97
79 98
80 81
80 89
80 91
80 96
81 84
81 85
81 87
81 92
81 93
81 94
81 99
82 84
82 95
82 97
82 99
83 85
83 87
83 90
83 91
83 98
83 99
84 85
84 86
84 87
84 90
84 91
84 96
84 98
85 89
85 94
86 92
86 95
87 89
87 92
87 95
87 97
87 98
87 99
88 90
88 93
89 92
89 93
89 98
90 92
90 94
90 99
91 93
91 94
91 96
91 99
92 93
92 95
95 98
96 98
96 99
97 99
